(set-info :smt-lib-version 2.6)
(set-logic QF_LIA)
(set-info :category "industrial")
(set-info :status sat)
(declare-fun x0 () Int)
(declare-fun x1 () Int)
(declare-fun x10 () Int)
(declare-fun x11 () Int)
(declare-fun x12 () Int)
(declare-fun x13 () Int)
(declare-fun x14 () Int)
(declare-fun x2 () Int)
(declare-fun x3 () Int)
(declare-fun x4 () Int)
(declare-fun x5 () Int)
(declare-fun x6 () Int)
(declare-fun x7 () Int)
(declare-fun x8 () Int)
(declare-fun x9 () Int)
(assert (let ((?v_28 (* 0 x14)) (?v_43 (* 1 x5)) (?v_1 (* 1 x9)) (?v_24 (* 0 x6)) (?v_7 (* 1 x0)) (?v_2 (* 0 x12)) (?v_5 (* 0 x4)) (?v_6 (* 0 x5)) (?v_3 (* 1 x3)) (?v_30 (* 1 x6)) (?v_13 (* 0 x0)) (?v_8 (* 0 x8)) (?v_25 (* 0 x9)) (?v_33 (* 1 x7)) (?v_17 (* 0 x1)) (?v_19 (* 0 x7)) (?v_31 (* 1 x8)) (?v_14 (* 0 x10)) (?v_18 (* 0 x13)) (?v_15 (* 1 x14)) (?v_29 (* 1 x11)) (?v_21 (* 1 x10)) (?v_36 (* 0 x11)) (?v_39 (* 1 x13)) (?v_40 (* 0 x2)) (?v_20 (* 1 x4)) (?v_23 (* 0 x3)) (?v_37 (* 2 x2)) (?v_32 (* 2 x9)) (?v_41 (* 1 x12)) (?v_46 (* 2 x14))) (let ((?v_48 (+ ?v_25 ?v_30)) (?v_44 (* 1 x2)) (?v_47 (+ ?v_31 ?v_1)) (?v_49 (* 1 x1))) (let ((?v_50 (+ ?v_49 (+ ?v_36 ?v_3))) (?v_0 (* (- 1) x1)) (?v_9 (* (- 1) x12)) (?v_38 (* (- 1) x4)) (?v_45 (* (- 1) x14)) (?v_11 (* (- 1) x7)) (?v_10 (* (- 1) x13)) (?v_4 (* (- 1) x2)) (?v_27 (* (- 1) x10)) (?v_16 (* (- 1) x3)) (?v_22 (* (- 1) x5)) (?v_12 (* (- 1) x9)) (?v_35 (* (- 1) x6)) (?v_42 (* (- 1) x8)) (?v_26 (* (- 1) x0)) (?v_34 (* (- 1) x11))) (and (<= (+ ?v_0 (+ ?v_9 (+ ?v_38 (+ ?v_28 (+ ?v_43 (+ ?v_1 (+ (* 2 x3) ?v_24))))))) 0) (<= (+ ?v_7 (+ ?v_0 (+ ?v_2 (+ (* 2 x13) (+ ?v_45 (+ ?v_11 (+ ?v_5 (+ ?v_6 (+ ?v_3 (+ ?v_30 ?v_1)))))))))) 0) (<= (+ ?v_13 (+ ?v_0 (+ ?v_10 (+ ?v_2 (+ ?v_4 (+ ?v_8 (+ ?v_25 (+ ?v_3 ?v_33)))))))) 0) (<= (+ ?v_27 (+ ?v_4 (+ ?v_17 (+ ?v_2 (+ ?v_5 (+ ?v_6 (+ ?v_19 (+ ?v_3 ?v_31)))))))) 0) (<= (+ ?v_14 (+ ?v_18 (+ ?v_7 (+ ?v_15 (+ ?v_4 (+ ?v_16 (+ ?v_5 (+ ?v_22 (+ ?v_8 (+ ?v_12 ?v_29)))))))))) (- 1)) (<= (+ ?v_9 (+ ?v_10 (+ (* (- 2) x5) (+ ?v_11 (+ ?v_12 (+ ?v_13 (+ ?v_14 (+ ?v_5 (+ ?v_15 ?v_4))))))))) (- 1)) (<= (+ ?v_9 (+ ?v_21 (+ ?v_16 (+ ?v_35 (+ ?v_17 (+ ?v_36 (+ ?v_39 (+ ?v_40 (+ ?v_8 ?v_20))))))))) 0) (<= (+ ?v_42 (+ ?v_13 (+ ?v_17 (+ ?v_14 (+ ?v_18 (+ ?v_23 (+ ?v_19 (+ ?v_20 (+ ?v_37 ?v_32))))))))) (- 1)) (<= (+ ?v_26 (+ ?v_18 (+ ?v_5 (+ ?v_21 (+ ?v_41 (+ ?v_15 (+ ?v_22 (+ ?v_17 (+ ?v_23 (+ ?v_24 (+ ?v_8 ?v_25))))))))))) 0) (<= (+ ?v_26 (+ ?v_27 (+ ?v_4 (+ ?v_17 (+ ?v_28 (+ ?v_19 (+ ?v_29 (+ ?v_30 (+ ?v_31 ?v_32))))))))) 0) (<= (+ ?v_13 (+ ?v_17 (+ ?v_14 (+ ?v_34 (+ ?v_10 (+ ?v_2 (+ ?v_28 (+ ?v_20 (+ ?v_33 (+ ?v_25 ?v_3)))))))))) 1) (<= (+ ?v_13 (+ ?v_17 (+ ?v_21 (+ ?v_34 (+ ?v_10 (+ ?v_11 (+ ?v_2 (+ ?v_46 (+ ?v_23 (+ ?v_35 (* 2 x8))))))))))) (- 1)) (<= (+ ?v_13 (+ ?v_36 (+ ?v_18 (+ ?v_28 (+ ?v_19 (+ ?v_20 (+ ?v_31 ?v_37))))))) 0) (<= (+ ?v_38 (+ ?v_13 (+ ?v_14 (+ ?v_36 (+ ?v_2 (+ ?v_39 (+ ?v_40 (+ ?v_6 ?v_24)))))))) 1) (<= (+ ?v_13 (+ ?v_14 (+ ?v_36 (+ ?v_18 (+ ?v_41 (+ ?v_23 (+ ?v_19 (+ ?v_20 ?v_48)))))))) 1) (<= (+ ?v_10 (+ ?v_38 (+ ?v_42 (+ ?v_13 (+ ?v_36 (+ ?v_25 (+ ?v_44 (+ ?v_43 (+ ?v_30 ?v_33))))))))) 1) (<= (+ ?v_13 (+ ?v_16 (+ ?v_36 (+ ?v_39 (+ ?v_5 (+ ?v_15 (+ ?v_6 (+ ?v_30 ?v_31)))))))) 0) (<= (+ ?v_26 (+ ?v_27 (+ ?v_35 (+ ?v_11 (+ ?v_36 (+ ?v_2 (+ ?v_28 (+ ?v_23 (+ ?v_44 ?v_47))))))))) (- 1)) (<= (+ ?v_14 (+ ?v_35 (+ ?v_42 (+ ?v_36 (+ ?v_2 (+ ?v_28 (+ ?v_40 (+ ?v_5 (+ ?v_6 (+ ?v_19 ?v_25)))))))))) 0) (<= (+ ?v_45 (+ ?v_42 (+ ?v_14 (+ ?v_18 (+ ?v_40 (+ ?v_23 (+ ?v_49 (+ ?v_20 (+ ?v_43 (+ ?v_30 (* 2 x7))))))))))) 0) (<= (+ ?v_38 (+ ?v_14 (+ ?v_2 (+ ?v_46 (+ ?v_35 (+ ?v_40 (+ ?v_6 (+ ?v_19 (+ ?v_29 ?v_47))))))))) (- 1)) (<= (+ ?v_38 (+ ?v_21 (+ ?v_41 (+ ?v_15 (+ ?v_16 (+ ?v_40 (+ ?v_6 (+ ?v_31 ?v_48)))))))) 0) (<= (+ ?v_27 (+ ?v_9 (+ ?v_39 (+ ?v_45 (+ ?v_38 (+ ?v_23 (+ ?v_24 (+ ?v_19 ?v_31)))))))) 0) (<= (+ ?v_11 (+ ?v_42 (+ ?v_14 (+ ?v_5 (+ ?v_25 (+ ?v_3 (+ ?v_24 (+ (* 2 x1) (* 3 x11))))))))) 0) (<= (+ ?v_27 (+ ?v_22 (+ ?v_7 (+ ?v_49 (+ ?v_36 (+ ?v_41 (+ ?v_28 (+ ?v_40 (+ ?v_3 ?v_20))))))))) 0) (<= (+ ?v_10 (+ ?v_13 (+ ?v_14 (+ ?v_28 (+ ?v_4 (+ ?v_22 (+ ?v_35 (+ ?v_8 (+ ?v_12 ?v_50))))))))) 0) (<= (+ ?v_27 (+ ?v_45 (+ ?v_13 (+ ?v_4 (+ ?v_6 (+ ?v_24 (+ ?v_25 ?v_50))))))) 0) (<= (+ ?v_10 (+ ?v_38 (+ ?v_14 (+ ?v_22 (+ ?v_19 (+ ?v_7 (+ ?v_49 (+ ?v_29 ?v_37)))))))) 1) (<= (+ ?v_9 (+ ?v_45 (+ ?v_42 (+ ?v_12 (+ ?v_40 (+ ?v_6 (+ ?v_49 (+ ?v_21 (+ ?v_29 ?v_3))))))))) 0) (<= (+ ?v_14 (+ ?v_7 (+ ?v_49 (+ ?v_34 (+ ?v_2 (+ ?v_28 (+ ?v_4 (+ ?v_3 (+ ?v_35 ?v_31))))))))) 1))))))
(check-sat)
(exit)
